7
0, 654, 135, 372, 71, 224, 895
654, 0, 745, 635, 685, 756, 556
135, 745, 0, 320, 69, 105, 905
372, 635, 320, 0, 323, 240, 613
71, 685, 69, 323, 0, 153, 880
224, 756, 105, 240, 153, 0, 847
895, 556, 905, 613, 880, 847, 0
